NAME : mEgtspf.pid9693.gtsp.228592051.tour
COMMENT : Length = 228592051
COMMENT : Found by LKH [Keld Helsgaun] Sat Mar  8 17:02:52 2025
TYPE : TOUR
DIMENSION : 135
TOUR_SECTION
1
15
17
18
19
16
9
60
61
62
63
119
116
117
118
114
115
112
113
14
86
87
84
85
82
83
80
81
6
77
78
79
76
7
37
38
39
36
45
46
47
44
125
126
127
124
94
95
92
93
129
130
131
128
4
100
101
102
103
56
57
58
59
23
20
21
22
99
96
97
98
89
90
91
88
11
12
3
53
54
55
52
10
51
48
49
50
106
107
104
105
75
72
73
74
13
120
121
122
123
35
32
33
34
8
29
30
31
28
109
110
111
108
25
26
27
24
132
133
134
135
5
71
68
69
70
2
43
40
41
42
67
64
65
66
-1
EOF
